(set-info :status unknown)
(declare-fun C2 () (_ BitVec 41))
(declare-fun C1 () (_ BitVec 11))
(declare-fun C3 () (_ BitVec 41))
(declare-fun %x () (_ BitVec 41))
(assert
 (let (($x15335 (= (bvand %x (bvor C3 (bvsub (bvshl (_ bv1 41) (_ bv11 41)) (_ bv1 41)))) (bvor ((_ zero_extend 30) C1) C2))))
 (let ((?x17697 (ite (= (bvand %x C3) C2) (_ bv1 1) (_ bv0 1))))
 (let ((?x9768 (ite (= ((_ extract 10 0) %x) C1) (_ bv1 1) (_ bv0 1))))
 (and (= (bvand (bvsub (bvshl (_ bv1 41) (_ bv11 41)) (_ bv1 41)) C3) (_ bv0 41)) (= (bvand (bvsub (bvshl (_ bv1 41) (_ bv11 41)) (_ bv1 41)) C2) (_ bv0 41)) (and (distinct (bvand ?x9768 ?x17697) (ite $x15335 (_ bv1 1) (_ bv0 1))) true))))))
(check-sat)
